StudentsNr = 10;
InstructorsNr = 19;
DaysNr = 1;
SlotsPerDay = 60;
AvailabilitySlotsLenght = 20;
RoomNr = 1;
ProgrammNr = 1;
DegreeNr = 1;
RolesNr = 4;
CoursesNr = 4;
InstructorsProgramm = [{1}, {1}, {1}, {1}, {1}, {1}, {1}, {1}, {1}, {1}, {1}, {1}, {1}, {1}, {1}, {1}, {1}, {1}, {1}];
InstructorRolesPerProgramm = [|{4, 6, 11, 12, 13, 15, 17, 18, 19}, {3, 5, 8, 12, 13, 15, 17, 19}, {4, 5, 7, 12, 15, 18}, {2, 5, 11, 14, 17, 18}|];
InstructorsAvailability = [|0, 1, 1, |0, 0, 1, |1, 1, 0, |0, 0, 1, |0, 1, 0, |0, 1, 0, |0, 1, 1, |1, 1, 1, |1, 1, 1, |0, 1, 1, |0, 1, 1, |1, 1, 1, |0, 0, 1, |0, 0, 1, |1, 1, 1, |0, 0, 0, |1, 1, 1, |0, 1, 1, |1, 1, 1|];
StudentsProgramm = [1, 1, 1, 1, 1, 1, 1, 1, 1, 1];
StudentsDegree = [1, 1, 1, 1, 1, 1, 1, 1, 1, 1];
StudentsSupervisorId = [3, 14, 7, 8, 13, 19, 4, 19, 10, 6];
StudentsCourseIds = [{}, {}, {}, {}, {}, {}, {}, {}, {}, {}];
StudentsAvailability = [|1, 1, 1, |1, 1, 1, |1, 1, 1, |0, 1, 1, |0, 0, 1, |1, 1, 1, |0, 0, 1, |1, 1, 1, |0, 1, 1, |1, 1, 1|];
TheoryticalMinCard = [0, 0, 0, 0, 0, 0, 0, 0, 1, 0];
CoursesInstructorIds = [{1, 7, 14}, {1, 2, 4, 5, 6, 7, 9, 11, 12, 14, 15, 16, 17, 18, 19}, {1, 4, 6}, {2, 5, 6, 7, 10, 11, 13, 16, 18}];
RolesDemands = [3, 3, 5, 5];
RolesContinuity = [4, 3];
ExamLen = [2, 2, 2, 2, 2, 2, 2, 2, 2, 2];
LunchTsMinLen = 1;
LunchStarts = [25..39];
SupervisorAvailable = 0;
OptimalLunchLenght = [0, 1];
OptimalStartTs = [1, 0];
OptimalFinishTs = [2, 59];
MinimizeRooms = 100;
RolesSoftContinuity = [|1, 2, 3, 4|2, 3, 3, 2|];
SameDegreeInRoom = 20;
Mergeability = 0;
